NAME : airline78.pruned_local_8.-192982870.tour
COMMENT : Length = -192982870
TYPE : TOUR
DIMENSION : 29
TOUR_SECTION
27
15
29
9
25
24
23
22
14
20
21
12
10
7
5
6
17
19
18
3
4
1
2
13
8
11
16
26
28
-1
EOF
